4 5
3 5 0 2 1 5 2 4 3 1 4 2 5 0 5 1 4 2 5 3 7 4 5 5 0 4 1 5 2 5 3 4 4 5
3 5 0 2 1 5 2 4 3 7 4 8 5 0 5 1 6 2 9 3 8 4 5 5 0 4 1 5 2 4 3 54 4 5
4 5 0 9 1 8 2 6 3 7 4 9 5 0 6 1 1 2 2 3 5 4 4 5 0 2 1 5 2 4 3 2 4 4 5 0 4 1 5 2 2 3 1 4 5
2 5 0 1 1 5 2 2 3 4 4 12 5 0 5 1 1 2 2 3 1 4 2
